
ACE v2.1 

  instance
    name:PyCSP

  Loading variables...

  Loading constraints...

  domains
    types:1  values:320  sizes:[4:80]
  variables
    count:80  arrays:1  degrees:[63:4,64:34,65:42]
  constraints
    count:1224  specific:24  groups:2  arities:[4:1200,10:15,16:5,32:4]
    distribution:[Cardinality:5,ConstraintIntension:1200,LexicographicLE:19]
    intStructures:(1,shared:1199)
    wck:2.29  cpu:1.906  mem:43M813

  Building solver... 

  solver
    guaranteedAC:true
    wck:2.36  cpu:1.953  mem:46M958

  preprocessing
    revisions:(4800,useless=4800)  values:320  unsat:false
    wck:0.02  cpu:1.968  mem:46M958

    run0  dpts:-1..79  effs:126  wck:0.00  sols:1

  global
    effs:126  revisions:(25938,useless=25823)
    stop:REACHED_GOAL  sols:1  sol1Cpu:1.984
    wck:2.43  cpu:1.984  mem:47M485


  Solution 1 in JSON format:
   {
    x: [
     [0, 0, 0, 0, 1, 1, 1, 1, 2, 2, 2, 2, 3, 3, 3, 3],
     [0, 1, 2, 3, 0, 1, 2, 3, 0, 1, 2, 3, 0, 1, 2, 3],
     [0, 1, 2, 3, 1, 0, 3, 2, 2, 3, 0, 1, 3, 2, 1, 0],
     [0, 1, 2, 3, 2, 3, 0, 1, 3, 2, 1, 0, 1, 0, 3, 2],
     [0, 1, 2, 3, 3, 2, 1, 0, 1, 0, 3, 2, 2, 3, 0, 1]
    ]
   }

s SATISFIABLE

v <instantiation id='sol1' type='solution'> <list> x[][] </list> <values> 0x4 1x4 2x4 3x4 0 1 2 3 0 1 2 3 0 1 2 3 0 1 2 3 0 1 2 3 1 0 3 2 2 3 0 1 3 2 1 0 0 1 2 3 2 3 0 1 3 2 1 0 1 0 3 2 0 1 2 3 3 2 1 0 1 0 3 2 2 3 0 1 </values> </instantiation>

d WRONG DECISIONS 0
d FOUND SOLUTIONS 1
d INCOMPLETE EXPLORATION

c real time : 2.0
